\Problem name: 

Minimize
OBJROW: -0 x(1,2) -0 x(1,3) -1 x(2,1) -0.18 x(2,3) -0.52 x(3,1) -0.01 x(3,2)
Subject To
x(1,2) + x(1,3) - x(2,1) - x(3,1) = 0
x(2,1) + x(2,3) - x(1,2) - x(3,2) = 0
x(3,1) + x(3,2) - x(1,3) - x(2,3) = 0
0 x(1,2) + 0 x(1,3) + 1 x(2,1) + 0.18 x(2,3) + 0.52 x(3,1) + 0.01 x(3,2)  - x(1,2) - x(1,3) - x(2,1) - x(2,3) - x(3,1) - x(3,2) >= -1
Bounds
Binaries
x(1,2) x(1,3) x(2,1) x(2,3) x(3,1) x(3,2)
End
